Route #1: 66 84 90 68
Route #2: 57 72 36 29 43 45 2 7
Route #3: 58 12 5
Route #4: 35 46 31
Route #5: 25 65 78 42 28
Route #6: 63 77 3
Route #7: 93 75
Route #8: 32 33 53 73 95 24
Route #9: 21 56 94 80
Route #10: 20 41 22 15
Route #11: 69 16 55 76
Route #12: 52 91 50
Route #13: 44 67 88 40
Route #14: 79 11 85 30
Route #15: 17 8
Route #16: 23 61 100
Route #17: 18 10 39
Route #18: 92 9 86
Route #19: 89 98 99 62 71
Route #20: 19 97 27
Route #21: 34 64 96 48 26 47 38
Route #22: 59 60 82
Route #23: 14 49 6 37 87
Route #24: 83 51 81
Route #25: 4 13 74
Route #26: 54 70 1
Cost 27591.0000
Time 16.0005